
List of user-set options:

                                    Name   Value                used
                           compl_inf_tol = 1                     yes
                         constr_viol_tol = 1                     yes
                            dual_inf_tol = 1000                  yes
                           linear_solver = ma97                  yes
                              ma86_small = 1e-30                  no
                                  ma86_u = 0.0001                 no
                              ma97_order = best                  yes
                              ma97_small = 1e-30                 yes
                            ma97_switch1 = at_start              yes
                            ma97_switch2 = od_hd_reuse           yes
                                  ma97_u = 1e-06                 yes
                               ma97_umax = 0.5                   yes
                                max_iter = 1000                  yes
                    max_refinement_steps = 20                    yes
                    min_refinement_steps = 5                     yes
                                 mu_init = 1e-06                 yes
           mu_superlinear_decrease_power = 1.25                  yes
                   nlp_scaling_min_value = 1e-08                 yes
                        option_file_name = Preset_Case_794_pf.opt  yes
                             output_file = ./tmp/Preset_Case_794_pf.output  yes
                      print_user_options = yes                   yes
        required_infeasibility_reduction = 1                      no
                                     tol = 1e-08                 yes
                   warm_start_bound_frac = 1e-20                 yes
                   warm_start_bound_push = 1e-20                 yes
                   warm_start_init_point = yes                   yes
              warm_start_mult_bound_push = 1e-20                 yes
                warm_start_mult_init_max = 1e+40                 yes
             warm_start_slack_bound_frac = 1e-20                 yes
             warm_start_slack_bound_push = 1e-20                 yes

******************************************************************************
This program contains Ipopt, a library for large-scale nonlinear optimization.
 Ipopt is released as open source code under the Eclipse Public License (EPL).
         For more information visit http://projects.coin-or.org/Ipopt
******************************************************************************

This is Ipopt version 3.12.10, running with linear solver ma97.

Number of nonzeros in equality constraint Jacobian...:   123443
Number of nonzeros in inequality constraint Jacobian.:      213
Number of nonzeros in Lagrangian Hessian.............:    49069

Total number of variables............................:    31591
                     variables with only lower bounds:    12912
                variables with lower and upper bounds:    15130
                     variables with only upper bounds:        0
Total number of equality constraints.................:    31483
Total number of inequality constraints...............:       25
        inequality constraints with only lower bounds:        4
   inequality constraints with lower and upper bounds:        0
        inequality constraints with only upper bounds:       21

iter    objective    inf_pr   inf_du lg(mu)  ||d||  lg(rg) alpha_du alpha_pr  ls
   0 -5.2337473e+00 4.02e-03 1.02e+00  -6.0 0.00e+00    -  0.00e+00 0.00e+00   0
   1 -5.2377921e+00 8.51e+00 3.36e+01  -6.0 4.37e+05    -  7.18e-05 1.03e-03h  1
   2 -5.2377538e+00 8.51e+00 3.36e+01  -6.0 2.02e+03    -  1.04e-04 3.26e-05h  1
   3 -5.2345648e+00 8.50e+00 3.89e+01  -6.0 1.27e+04    -  9.87e-05 1.15e-03h  3
   4 -5.2337419e+00 8.50e+00 1.35e+02  -6.0 3.16e+03    -  2.34e-01 7.30e-04h  5
   5 -5.2333726e+00 8.49e+00 1.46e+02  -6.0 3.71e+03    -  1.28e-03 2.06e-04h  7
   6 -5.2331506e+00 8.49e+00 1.47e+02  -6.0 3.07e+03    -  2.54e-03 1.96e-04h 10
   7 -5.2330390e+00 8.49e+00 1.47e+02  -6.0 3.07e+03    -  1.74e-03 9.88e-05h 11
   8 -5.1758561e+00 8.06e+00 1.70e+04  -6.0 3.07e+03    -  6.63e-03 5.07e-02h  2
   9 -5.1268884e+00 7.61e+00 2.52e+04  -6.0 3.25e+03    -  6.48e-02 5.64e-02h  1
iter    objective    inf_pr   inf_du lg(mu)  ||d||  lg(rg) alpha_du alpha_pr  ls
  10 -5.1088786e+00 7.38e+00 2.63e+04  -6.0 3.38e+03    -  2.88e-01 2.95e-02h  4
  11 -5.0966549e+00 7.20e+00 2.70e+04  -6.0 3.65e+03    -  2.19e-01 2.51e-02h  4
  12 -5.0885050e+00 7.05e+00 2.73e+04  -6.0 4.29e+03    -  5.44e-02 2.12e-02h  4
  13 -5.0827500e+00 6.91e+00 2.72e+04  -6.0 5.15e+03    -  3.80e-01 1.94e-02h  3
  14 -5.0798794e+00 6.81e+00 2.73e+04  -6.0 6.43e+03    -  4.44e-01 1.39e-02h  4
  15 -5.0784604e+00 6.74e+00 2.74e+04  -6.0 7.98e+03    -  1.11e-01 1.11e-02h  4
  16 -5.0781409e+00 6.68e+00 2.74e+04  -6.0 1.05e+04    -  3.04e-01 8.29e-03h  4
  17 -5.0782447e+00 6.63e+00 2.75e+04  -6.0 1.16e+04    -  7.75e-02 7.07e-03h  4
  18 -5.0789477e+00 6.55e+00 3.51e+04  -6.0 1.26e+04    -  1.00e+00 1.23e-02h  3
  19 -5.0704186e+00 6.29e+00 3.49e+04  -6.0 3.71e+03    -  6.31e-02 3.97e-02h  4
iter    objective    inf_pr   inf_du lg(mu)  ||d||  lg(rg) alpha_du alpha_pr  ls
  20 -5.0703199e+00 6.29e+00 3.89e+04  -6.0 3.80e+02  -4.0 2.31e-02 4.37e-04h  1
  21 -5.0658752e+00 6.05e+00 3.64e+04  -6.0 3.79e+03    -  2.09e-02 3.79e-02h  4
  22 -5.0657499e+00 6.05e+00 3.75e+04  -6.0 3.67e+02  -4.5 1.13e-02 7.38e-04h  1
  23 -5.0646510e+00 5.83e+00 3.39e+04  -6.0 3.88e+03    -  5.69e-03 3.64e-02h  4
  24 -5.0644700e+00 5.82e+00 4.50e+04  -6.0 3.52e+02  -5.0 1.57e-01 1.70e-03h  1
  25 -5.0657980e+00 5.62e+00 4.28e+04  -6.0 4.05e+03    -  2.59e-02 3.43e-02h  4
  26 -5.0657054e+00 5.61e+00 6.94e+04  -6.0 3.39e+02  -5.4 3.91e-01 1.90e-03h  1
  27 -5.0714260e+00 5.24e+00 7.58e+04  -6.0 4.26e+03    -  2.33e-01 6.46e-02h  3
  28 -5.0761168e+00 3.68e+00 9.42e+04  -6.0 3.21e+02  -5.9 4.67e-02 3.00e-01h  1
  29 -5.1967882e+00 2.60e+00 6.39e+04  -6.0 1.97e+02  -6.4 4.31e-02 2.93e-01h  1
iter    objective    inf_pr   inf_du lg(mu)  ||d||  lg(rg) alpha_du alpha_pr  ls
  30 -5.4009024e+00 1.49e+00 1.82e+05  -6.0 2.07e+02  -6.9 9.03e-02 4.29e-01h  1
  31 -5.4941979e+00 1.17e+01 9.25e+04  -6.0 3.52e+03    -  2.62e-01 2.02e-01h  1
  32 -5.6202201e+00 4.97e+00 5.52e+05  -6.0 3.74e+02  -6.4 1.28e-02 5.75e-01h  1
  33 -5.6518816e+00 3.68e+00 6.00e+05  -6.0 3.79e+01  -4.2 1.55e-01 2.60e-01h  1
  34 -5.6702137e+00 2.94e+00 3.45e+05  -6.0 2.00e+01  -4.7 2.37e-01 2.02e-01h  1
  35r-5.6702137e+00 2.94e+00 1.00e+03   0.4 0.00e+00  -5.2 0.00e+00 3.01e-07R  2
  36r-5.6679661e+00 2.93e+00 1.00e+03   0.4 1.55e+04    -  4.04e-06 9.70e-07f  1
  37 -5.6708861e+00 2.73e+00 1.41e+04  -6.0 4.34e+00    -  5.97e-02 6.84e-02h  1
  38 -5.6821529e+00 1.96e+00 2.94e+05  -6.0 3.91e+00    -  6.84e-02 2.84e-01h  1
  39 -5.6915822e+00 1.30e+00 1.96e+05  -6.0 2.61e+00    -  5.39e-01 3.34e-01h  1
iter    objective    inf_pr   inf_du lg(mu)  ||d||  lg(rg) alpha_du alpha_pr  ls
  40 -5.7075874e+00 2.92e-01 4.38e+04  -6.0 1.68e+00    -  8.59e-01 7.76e-01h  1
  41 -5.7235315e+00 9.84e-03 7.41e+02  -6.0 6.22e+00    -  6.58e-01 1.00e+00h  1
  42 -5.7308656e+00 1.45e-02 1.30e+02  -6.0 1.72e+01    -  5.22e-01 1.00e+00h  1
  43 -5.7414156e+00 2.11e-02 5.51e+02  -6.0 3.43e+01    -  7.69e-01 1.00e+00h  1
  44 -5.7540368e+00 5.40e-02 5.40e+02  -6.0 1.26e+02    -  8.52e-01 3.85e-01h  1
  45 -5.7535883e+00 2.87e-02 2.88e+02  -6.0 1.18e-01  -1.1 1.76e-02 4.68e-01h  1
  46 -5.7536583e+00 2.87e-02 2.88e+02  -6.0 5.33e+02    -  7.88e-01 8.59e-04h  1
  47 -5.7675535e+00 6.66e+00 2.95e+02  -6.0 3.93e+05    -  1.01e-03 1.57e-03f  1
  48 -5.8680749e+00 1.46e+01 2.92e+03  -6.0 9.13e+02    -  3.98e-01 9.75e-01h  1
  49 -5.8701437e+00 1.37e+01 2.73e+03  -6.0 9.35e+02    -  1.70e-01 6.13e-02h  1
iter    objective    inf_pr   inf_du lg(mu)  ||d||  lg(rg) alpha_du alpha_pr  ls
  50 -5.8787506e+00 9.29e+00 1.73e+03  -6.0 8.98e+02    -  4.41e-01 3.24e-01h  1
  51 -5.8785578e+00 9.22e+00 1.72e+03  -6.0 3.77e+00  -1.6 8.34e-03 7.03e-03h  1
  52 -5.8786848e+00 9.16e+00 1.71e+03  -6.0 8.05e+02    -  1.47e-03 6.36e-03h  1
  53 -5.8787160e+00 9.15e+00 1.70e+03  -6.0 8.03e+02    -  2.74e-04 1.55e-03f  1
  54 -5.8788387e+00 9.09e+00 4.72e+06  -6.0 8.02e+02    -  1.27e-08 6.05e-03f  1
  55 -5.8788406e+00 9.09e+00 4.72e+06  -6.0 7.99e+02    -  1.11e-06 9.53e-05h  1
  56 -5.8789691e+00 9.04e+00 4.79e+05  -6.0 8.01e+02    -  1.25e-08 6.27e-03f  1
  57 -5.8789712e+00 9.04e+00 4.79e+05  -6.0 7.98e+02    -  1.21e-06 1.01e-04h  1
  58 -5.8791059e+00 8.98e+00 4.80e+06  -6.0 7.99e+02    -  1.29e-08 6.51e-03f  1
  59 -5.8791080e+00 8.98e+00 4.80e+06  -6.0 7.96e+02    -  1.16e-06 1.01e-04h  1
iter    objective    inf_pr   inf_du lg(mu)  ||d||  lg(rg) alpha_du alpha_pr  ls
  60 -5.8792490e+00 8.91e+00 6.08e+05  -6.0 7.97e+02    -  1.34e-08 6.74e-03f  1
  61 -5.8792511e+00 8.91e+00 6.08e+05  -6.0 7.94e+02    -  1.11e-06 1.01e-04h  1
  62 -5.8793984e+00 8.85e+00 4.87e+06  -6.0 7.96e+02    -  1.38e-08 6.97e-03f  1
  63 -5.8794005e+00 8.85e+00 4.87e+06  -6.0 7.92e+02    -  1.07e-06 1.01e-04h  1
  64 -5.8795541e+00 8.79e+00 7.36e+05  -6.0 7.94e+02    -  1.43e-08 7.20e-03f  1
  65 -5.8795562e+00 8.79e+00 7.36e+05  -6.0 7.90e+02    -  1.03e-06 1.01e-04h  1
  66 -5.8797160e+00 8.72e+00 4.94e+06  -6.0 7.92e+02    -  1.48e-08 7.43e-03f  1
  67 -5.8797182e+00 8.72e+00 4.94e+06  -6.0 7.87e+02    -  9.98e-07 1.01e-04h  1
  68 -5.8798841e+00 8.65e+00 8.61e+05  -6.0 7.89e+02    -  1.52e-08 7.65e-03f  1
  69 -5.8798863e+00 8.65e+00 8.61e+05  -6.0 7.85e+02    -  9.66e-07 1.01e-04h  1
iter    objective    inf_pr   inf_du lg(mu)  ||d||  lg(rg) alpha_du alpha_pr  ls
  70 -5.8800584e+00 8.58e+00 5.00e+06  -6.0 7.87e+02    -  1.57e-08 7.87e-03f  1
  71 -5.8800606e+00 8.58e+00 5.00e+06  -6.0 7.83e+02    -  9.35e-07 1.01e-04h  1
  72 -5.8802388e+00 8.51e+00 9.86e+05  -6.0 7.85e+02    -  1.61e-08 8.10e-03f  1
  73 -5.8802411e+00 8.51e+00 9.86e+05  -6.0 7.80e+02    -  9.07e-07 1.01e-04h  1
  74 -5.8804253e+00 8.44e+00 5.05e+06  -6.0 7.83e+02    -  1.65e-08 8.31e-03f  1
  75 -5.8804276e+00 8.44e+00 5.05e+06  -6.0 7.78e+02    -  8.81e-07 1.01e-04h  1
  76 -5.8806179e+00 8.37e+00 1.11e+06  -6.0 7.80e+02    -  1.70e-08 8.53e-03f  1
  77 -5.8806201e+00 8.37e+00 1.11e+06  -6.0 7.75e+02    -  8.56e-07 1.01e-04h  1
  78 -5.8808164e+00 8.30e+00 5.11e+06  -6.0 7.78e+02    -  1.74e-08 8.75e-03f  1
  79 -5.8808187e+00 8.29e+00 5.11e+06  -6.0 7.73e+02    -  8.33e-07 1.01e-04h  1
iter    objective    inf_pr   inf_du lg(mu)  ||d||  lg(rg) alpha_du alpha_pr  ls
  80 -5.8810209e+00 8.22e+00 1.23e+06  -6.0 7.75e+02    -  1.78e-08 8.96e-03f  1
  81 -5.8810232e+00 8.22e+00 1.23e+06  -6.0 7.70e+02    -  8.11e-07 1.01e-04h  1
  82 -5.8812313e+00 8.14e+00 5.16e+06  -6.0 7.73e+02    -  1.83e-08 9.18e-03f  1
  83 -5.8812336e+00 8.14e+00 5.16e+06  -6.0 7.67e+02    -  7.90e-07 1.01e-04h  1
  84 -5.8814475e+00 8.07e+00 1.35e+06  -6.0 7.70e+02    -  1.87e-08 9.39e-03f  1
  85 -5.8814498e+00 8.07e+00 1.35e+06  -6.0 7.65e+02    -  7.71e-07 1.01e-04h  1
  86 -5.8816696e+00 7.99e+00 5.21e+06  -6.0 7.67e+02    -  1.91e-08 9.60e-03f  1
  87 -5.8816719e+00 7.99e+00 5.21e+06  -6.0 7.62e+02    -  7.52e-07 1.01e-04h  1
  88 -5.8818974e+00 7.91e+00 1.48e+06  -6.0 7.65e+02    -  1.95e-08 9.81e-03f  1
  89 -5.8818997e+00 7.91e+00 1.48e+06  -6.0 7.59e+02    -  7.35e-07 1.01e-04h  1
iter    objective    inf_pr   inf_du lg(mu)  ||d||  lg(rg) alpha_du alpha_pr  ls
  90 -5.8821310e+00 7.83e+00 5.25e+06  -6.0 7.62e+02    -  2.00e-08 1.00e-02f  1
  91 -5.8821333e+00 7.83e+00 5.25e+06  -6.0 7.56e+02    -  7.18e-07 1.01e-04h  1
  92 -5.8823703e+00 7.75e+00 1.60e+06  -6.0 7.59e+02    -  2.04e-08 1.02e-02f  1
  93 -5.8823726e+00 7.75e+00 1.60e+06  -6.0 7.53e+02    -  7.02e-07 1.01e-04h  1
  94 -5.8826153e+00 7.67e+00 5.30e+06  -6.0 7.57e+02    -  2.08e-08 1.04e-02f  1
  95 -5.8826176e+00 7.67e+00 5.30e+06  -6.0 7.50e+02    -  6.87e-07 1.01e-04h  1
  96 -5.8828660e+00 7.59e+00 1.72e+06  -6.0 7.54e+02    -  2.12e-08 1.06e-02f  1
  97 -5.8828683e+00 7.58e+00 1.72e+06  -6.0 7.48e+02    -  6.72e-07 1.01e-04h  1
  98 -5.8831223e+00 7.50e+00 5.34e+06  -6.0 7.51e+02    -  2.16e-08 1.09e-02f  1
  99 -5.8831247e+00 7.50e+00 5.34e+06  -6.0 7.45e+02    -  6.58e-07 1.00e-04h  1
iter    objective    inf_pr   inf_du lg(mu)  ||d||  lg(rg) alpha_du alpha_pr  ls
 100 -5.8833843e+00 7.42e+00 1.84e+06  -6.0 7.48e+02    -  2.21e-08 1.11e-02f  1
 101 -5.8833866e+00 7.42e+00 1.84e+06  -6.0 7.42e+02    -  6.45e-07 1.00e-04h  1
 102 -5.8836519e+00 7.33e+00 5.38e+06  -6.0 7.45e+02    -  2.25e-08 1.13e-02f  1
 103 -5.8836542e+00 7.33e+00 5.38e+06  -6.0 7.39e+02    -  6.32e-07 1.00e-04h  1
 104 -5.8839250e+00 7.25e+00 1.96e+06  -6.0 7.42e+02    -  2.29e-08 1.15e-02f  1
 105 -5.8839274e+00 7.25e+00 1.96e+06  -6.0 7.36e+02    -  6.20e-07 1.00e-04h  1
 106 -5.8842038e+00 7.16e+00 5.41e+06  -6.0 7.39e+02    -  2.33e-08 1.17e-02f  1
 107 -5.8842061e+00 7.16e+00 5.41e+06  -6.0 7.32e+02    -  6.08e-07 1.00e-04h  1
 108 -5.8844880e+00 7.08e+00 2.07e+06  -6.0 7.36e+02    -  2.37e-08 1.19e-02f  1
 109 -5.8844904e+00 7.08e+00 2.07e+06  -6.0 7.29e+02    -  5.97e-07 1.00e-04h  1
iter    objective    inf_pr   inf_du lg(mu)  ||d||  lg(rg) alpha_du alpha_pr  ls
 110 -5.8847777e+00 6.99e+00 5.45e+06  -6.0 7.33e+02    -  2.41e-08 1.21e-02f  1
 111 -5.8847801e+00 6.99e+00 5.45e+06  -6.0 7.26e+02    -  5.85e-07 1.00e-04h  1
 112 -5.8850728e+00 6.91e+00 2.19e+06  -6.0 7.30e+02    -  2.46e-08 1.23e-02f  1
 113 -5.8850752e+00 6.90e+00 2.19e+06  -6.0 7.22e+02    -  5.75e-07 1.00e-04h  1
 114 -5.8853732e+00 6.82e+00 5.49e+06  -6.0 7.26e+02    -  2.50e-08 1.25e-02f  1
 115 -5.8853756e+00 6.82e+00 5.48e+06  -6.0 7.21e+02    -  5.64e-07 1.00e-04h  1
 116 -5.8856789e+00 6.73e+00 2.31e+06  -6.0 7.23e+02    -  2.54e-08 1.27e-02f  1
 117 -5.8856813e+00 6.73e+00 2.31e+06  -6.0 7.22e+02    -  5.54e-07 1.00e-04h  1
 118 -5.8859896e+00 6.64e+00 5.52e+06  -6.0 7.19e+02    -  2.58e-08 1.29e-02f  1
 119 -5.8859920e+00 6.64e+00 5.52e+06  -6.0 7.23e+02    -  5.45e-07 1.00e-04h  1
iter    objective    inf_pr   inf_du lg(mu)  ||d||  lg(rg) alpha_du alpha_pr  ls
 120 -5.8863052e+00 6.56e+00 2.42e+06  -6.0 7.19e+02    -  2.62e-08 1.32e-02f  1
 121 -5.8863076e+00 6.55e+00 2.42e+06  -6.0 7.23e+02    -  5.35e-07 1.00e-04h  1
 122 -5.8866255e+00 6.47e+00 5.55e+06  -6.0 7.19e+02    -  2.67e-08 1.34e-02f  1
 123 -5.8866279e+00 6.47e+00 5.55e+06  -6.0 7.22e+02    -  5.26e-07 1.00e-04h  1
 124 -5.8869500e+00 6.38e+00 2.54e+06  -6.0 7.18e+02    -  2.71e-08 1.36e-02f  1
 125 -5.8869524e+00 6.38e+00 2.54e+06  -6.0 7.21e+02    -  5.18e-07 1.00e-04h  1
 126 -5.8872784e+00 6.29e+00 5.58e+06  -6.0 7.16e+02    -  2.75e-08 1.38e-02f  1
 127 -5.8872807e+00 6.29e+00 5.58e+06  -6.0 7.18e+02    -  5.09e-07 1.00e-04h  1
 128 -5.8876099e+00 6.20e+00 2.65e+06  -6.0 7.13e+02    -  2.79e-08 1.40e-02f  1
 129 -5.8876122e+00 6.20e+00 2.65e+06  -6.0 7.13e+02    -  5.01e-07 1.00e-04h  1
iter    objective    inf_pr   inf_du lg(mu)  ||d||  lg(rg) alpha_du alpha_pr  ls
 130 -5.8879436e+00 6.11e+00 5.61e+06  -6.0 7.09e+02    -  2.83e-08 1.42e-02f  1
 131 -5.8879459e+00 6.11e+00 5.61e+06  -6.0 7.06e+02    -  4.93e-07 1.00e-04h  1
 132 -5.8882785e+00 6.02e+00 2.77e+06  -6.0 7.01e+02    -  2.88e-08 1.44e-02f  1
 133 -5.8882808e+00 6.02e+00 2.77e+06  -6.0 6.96e+02    -  4.85e-07 1.00e-04h  1
 134 -5.8886137e+00 5.94e+00 5.64e+06  -6.0 6.91e+02    -  2.92e-08 1.46e-02f  1
 135 -5.8886159e+00 5.94e+00 5.64e+06  -6.0 6.84e+02    -  4.78e-07 1.00e-04h  1
 136 -5.8889481e+00 5.85e+00 2.88e+06  -6.0 6.79e+02    -  2.96e-08 1.48e-02f  1
 137 -5.8889503e+00 5.85e+00 2.88e+06  -6.0 6.70e+02    -  4.71e-07 1.00e-04h  1
 138 -5.8892814e+00 5.76e+00 5.67e+06  -6.0 6.65e+02    -  3.00e-08 1.50e-02f  1
 139 -5.8892835e+00 5.76e+00 5.67e+06  -6.0 6.49e+02    -  4.64e-07 1.00e-04h  1
iter    objective    inf_pr   inf_du lg(mu)  ||d||  lg(rg) alpha_du alpha_pr  ls
 140 -5.8894590e+00 5.71e+00 1.02e+06  -6.0 6.44e+02    -  3.04e-08 8.18e-03f  1
 141 -5.8894552e+00 5.71e+00 1.02e+06  -6.0 3.62e+00  -2.1 5.72e-04 2.60e-04h  1
 142 -5.8894561e+00 5.71e+00 1.02e+06  -6.0 5.03e+02    -  2.48e-06 4.78e-05h  1
 143 -5.8894565e+00 5.71e+00 1.01e+06  -6.0 5.01e+02    -  1.11e-09 2.33e-05f  1
 144 -5.8907963e+00 5.28e+00 9.33e+05  -6.0 5.03e+02    -  8.35e-05 7.62e-02f  1
 145 -5.8943051e+00 4.22e+00 7.44e+05  -6.0 4.63e+02    -  9.42e-02 2.02e-01h  1
 146 -5.8861883e+00 1.74e+00 2.70e+05  -6.0 3.83e+02    -  2.10e-01 6.37e-01h  1
 147 -5.8849021e+00 1.35e+00 2.09e+05  -6.0 2.14e+00  -2.6 4.96e-02 2.25e-01h  1
 148 -5.8828957e+00 1.23e+00 1.93e+05  -6.0 3.32e+02    -  2.28e-04 7.62e-02H  1
 149 -5.8868311e+00 1.10e+00 1.72e+05  -6.0 4.16e+02    -  1.50e-01 1.11e-01h  1
iter    objective    inf_pr   inf_du lg(mu)  ||d||  lg(rg) alpha_du alpha_pr  ls
 150 -5.8867892e+00 1.10e+00 1.70e+05  -6.0 8.11e-01  -0.3 6.79e-03 7.86e-03h  1
 151 -5.8866661e+00 1.07e+00 1.66e+05  -6.0 1.02e+00  -0.8 1.51e-02 2.33e-02h  1
 152 -5.8864762e+00 1.03e+00 1.61e+05  -6.0 8.66e-01  -1.3 2.14e-02 3.48e-02h  1
 153 -5.8856911e+00 8.77e-01 1.36e+05  -6.0 8.43e-01  -1.8 6.89e-02 1.51e-01h  1
 154 -5.8854061e+00 7.86e-01 1.22e+05  -6.0 8.33e-01  -2.2 2.61e-01 1.04e-01h  1
 155 -5.8849013e+00 6.48e-01 1.01e+05  -6.0 8.16e-01  -2.7 1.00e-01 1.76e-01h  1
 156 -5.8848111e+00 6.37e-01 9.90e+04  -6.0 4.24e-01  -0.5 3.02e-02 1.72e-02h  1
 157 -5.8844780e+00 5.96e-01 9.26e+04  -6.0 4.16e-01  -1.0 5.41e-02 6.43e-02h  1
 158 -5.8830451e+00 4.01e-01 6.22e+04  -6.0 4.15e-01  -1.4 5.89e-01 3.28e-01h  1
 159 -5.8829714e+00 3.64e-01 5.65e+04  -6.0 4.03e-01  -1.9 3.85e-01 9.21e-02h  1
iter    objective    inf_pr   inf_du lg(mu)  ||d||  lg(rg) alpha_du alpha_pr  ls
 160 -5.8835707e+00 3.41e-01 5.30e+04  -6.0 9.53e-01  -2.4 1.43e-01 6.22e-02h  1
 161 -5.8835728e+00 3.32e-01 5.17e+04  -6.0 1.21e+00  -2.9 1.92e-03 2.51e-02h  1
 162 -5.8836334e+00 3.25e-01 5.04e+04  -6.0 1.07e+00  -3.3 6.74e-01 2.36e-02h  1
 163 -5.8837914e+00 3.16e-01 4.91e+04  -6.0 4.65e+00  -3.8 3.88e-01 2.56e-02h  1
 164 -5.8834305e+00 2.26e-01 3.51e+04  -6.0 2.97e-01  -1.6 2.34e-02 2.85e-01h  1
 165 -5.8823954e+00 6.52e-05 1.08e+02  -6.0 1.93e-01  -1.2 2.21e-01 1.00e+00h  1
 166 -5.8824268e+00 5.00e-05 7.90e+01  -6.0 2.04e-02  -1.6 9.25e-01 1.61e-01h  1
 167 -5.8825399e+00 2.30e-05 3.07e+01  -6.0 5.70e-02  -2.1 1.00e+00 5.90e-01f  1
 168 -5.8828952e+00 6.44e-04 1.05e+02  -6.0 5.12e+02    -  1.00e+00 1.50e-02f  1
 169 -5.8845044e+00 4.16e-01 8.47e+01  -6.0 3.56e+02    -  1.00e+00 4.41e-01h  1
iter    objective    inf_pr   inf_du lg(mu)  ||d||  lg(rg) alpha_du alpha_pr  ls
 170 -5.8843511e+00 1.55e-05 4.98e-01  -6.0 3.77e-02  -2.6 1.00e+00 1.00e+00h  1
 171 -5.8938860e+00 5.66e-01 2.10e+02  -6.0 6.18e+02    -  5.06e-01 2.78e-01f  1
 172 -5.8938013e+00 6.08e-01 7.25e+02  -6.0 2.68e+02    -  4.24e-01 4.82e-01h  1
 173 -5.8948578e+00 1.54e+00 4.00e+03  -6.0 5.14e+03    -  3.32e-01 4.38e-02h  1
 174 -5.9008344e+00 1.08e+00 7.22e+02  -6.0 2.63e+02    -  4.22e-01 5.39e-01h  1
 175 -5.9033109e+00 2.10e+00 1.63e+04  -6.0 8.63e+02    -  1.00e+00 3.14e-01h  1
 176 -5.9098766e+00 4.58e-01 1.31e+04  -6.0 1.56e+02    -  3.18e-01 1.00e+00h  1
 177 -5.9100974e+00 4.37e-01 1.71e+06  -6.0 3.11e+01  -3.1 1.11e-03 4.47e-02h  1
 178 -5.9078936e+00 8.20e-04 1.13e+03  -6.0 4.29e+00  -3.5 4.28e-01 1.00e+00h  1
 179 -5.9079028e+00 8.19e-04 1.50e+03  -6.0 1.84e+02    -  1.00e+00 5.41e-04h  1
iter    objective    inf_pr   inf_du lg(mu)  ||d||  lg(rg) alpha_du alpha_pr  ls
 180 -5.9114504e+00 7.35e-02 7.76e+00  -6.0 4.10e+01    -  1.00e+00 1.00e+00f  1
 181 -5.9115996e+00 6.92e-05 1.60e-01  -6.0 1.25e+00  -4.0 1.00e+00 1.00e+00h  1
 182 -5.9208630e+00 6.42e-01 5.41e+01  -6.0 7.46e+02    -  2.23e-01 1.16e-01f  1
 183 -5.9204629e+00 5.40e-01 2.19e+05  -6.0 3.90e+02    -  3.32e-01 1.58e-01h  1
 184 -5.9240266e+00 4.13e-01 1.24e+05  -6.0 2.95e+02    -  1.00e+00 2.44e-01h  1
 185 -5.9281923e+00 3.93e+00 1.41e+06  -6.0 4.64e+02    -  2.04e-01 1.00e+00h  1
 186 -5.9314723e+00 5.00e-04 1.38e+02  -6.0 3.45e+00  -4.5 1.50e-01 1.00e+00h  1
 187 -5.9405842e+00 1.52e+00 9.53e+01  -6.0 6.54e+02    -  3.92e-01 3.43e-01h  1
 188 -5.9420647e+00 5.55e-01 2.02e+03  -6.0 7.28e+01    -  1.00e+00 6.44e-01h  1
 189 -5.9455652e+00 1.31e+00 1.21e+03  -6.0 4.70e+02    -  3.82e-01 3.85e-01h  1
iter    objective    inf_pr   inf_du lg(mu)  ||d||  lg(rg) alpha_du alpha_pr  ls
 190 -5.9512036e+00 1.03e+00 1.02e+04  -6.0 2.27e+02    -  1.00e+00 5.12e-01h  1
 191 -5.9600336e+00 9.74e-01 2.00e+02  -6.0 2.21e+02    -  5.74e-01 6.78e-01h  1
 192 -5.9679765e+00 8.32e-01 4.19e+04  -6.0 2.12e+02    -  1.00e+00 5.64e-01h  1
 193 -5.9709288e+00 7.06e-01 4.69e+05  -6.0 3.27e+02    -  3.64e-02 2.04e-01h  1
 194 -5.9732310e+00 5.05e-01 5.51e+06  -6.0 1.24e+02  -5.0 3.46e-03 3.67e-01h  1
 195 -5.9750066e+00 5.70e-01 3.54e+06  -6.0 6.60e+00  -5.4 4.26e-04 3.58e-01h  1
 196 -5.9772398e+00 2.60e-01 5.73e+03  -6.0 9.56e+00  -5.9 5.63e-03 1.00e+00h  1
 197 -5.9791475e+00 1.90e+00 2.97e+01  -6.0 4.62e+01  -6.4 1.00e+00 1.00e+00h  1
 198 -5.9795410e+00 2.91e+00 2.30e+01  -6.0 3.74e+01  -6.0 1.27e-01 1.14e-01h  1
 199 -5.9823782e+00 5.40e-01 3.34e+00  -6.0 5.62e+01  -6.5 1.00e+00 1.00e+00h  1
iter    objective    inf_pr   inf_du lg(mu)  ||d||  lg(rg) alpha_du alpha_pr  ls
 200 -5.9829357e+00 1.63e+00 1.73e+02  -6.0 4.44e+01  -6.0 7.86e-02 9.46e-02h  1
 201 -5.9836888e+00 1.40e+00 5.04e+03  -6.0 6.12e+01  -6.5 8.69e-01 1.54e-01h  1
 202 -5.9815691e+00 7.70e-02 1.87e+03  -6.0 6.19e+01  -6.1 1.64e-01 1.00e+00h  1
 203 -5.9827792e+00 6.53e-02 8.83e+03  -6.0 7.85e+00  -5.7 4.28e-01 1.56e-01h  1
 204 -5.9883548e+00 1.61e-02 9.40e+02  -6.0 2.10e+01  -6.1 1.00e+00 9.67e-01h  1
 205 -5.9924587e+00 1.97e-02 8.79e+04  -6.0 8.16e+00  -5.7 3.52e-01 8.83e-01f  1
 206 -5.9954990e+00 2.45e-02 8.24e+07  -6.0 2.97e+01  -6.2 1.38e-03 1.00e+00f  1
 207 -5.9962477e+00 6.17e-03 1.75e+04  -6.0 8.25e+00  -5.8 9.61e-01 1.00e+00h  1
 208 -5.9996612e+00 9.74e-03 1.66e+04  -6.0 3.17e+02  -6.2 2.36e-02 4.52e-02h  1
 209 -5.9995083e+00 9.75e-03 1.66e+04  -6.0 1.93e+02  -5.8 1.64e-02 5.04e-04h  3
iter    objective    inf_pr   inf_du lg(mu)  ||d||  lg(rg) alpha_du alpha_pr  ls
 210 -5.9999991e+00 8.90e-03 1.51e+04  -6.0 2.85e+01  -6.3 3.91e-01 9.18e-02h  1
 211 -6.0018254e+00 5.61e-03 7.55e+03  -6.0 1.01e+01  -5.9 1.00e+00 5.00e-01f  1
 212 -6.0036894e+00 1.74e-02 4.46e+03  -6.0 3.07e+01  -6.3 5.91e-01 4.10e-01h  1
 213 -6.0064022e+00 1.51e-02 3.98e+01  -6.0 1.24e+01  -5.9 1.00e+00 1.00e+00f  1
 214 -6.0092250e+00 6.91e-02 8.06e+01  -6.0 3.35e+01  -6.4 5.83e-01 8.01e-01h  1
 215 -6.0109263e+00 4.39e-02 1.97e+00  -6.0 1.40e+01  -6.0 1.00e+00 1.00e+00h  1
 216 -6.0134257e+00 1.28e-01 8.86e+02  -6.0 1.11e+02  -6.4 7.09e-01 4.53e-01h  1
 217 -6.0170877e+00 2.41e-02 1.73e+03  -6.0 2.32e+01  -6.0 8.16e-01 1.00e+00h  1
 218 -6.0196403e+00 2.42e-02 3.50e+04  -6.0 2.14e+02  -6.5 8.54e-01 1.84e-01h  1
 219 -6.0263534e+00 1.84e-02 1.95e+04  -6.0 4.15e+01  -6.1 5.67e-01 1.00e+00h  1
iter    objective    inf_pr   inf_du lg(mu)  ||d||  lg(rg) alpha_du alpha_pr  ls
 220 -6.0304753e+00 2.33e-02 2.65e+05  -6.0 2.32e+02  -6.5 8.22e-01 1.78e-01h  1
 221 -6.0349085e+00 1.78e-02 1.76e+05  -6.0 5.86e+01  -6.1 3.21e-01 3.26e-01h  1
 222r-6.0349085e+00 1.78e-02 1.00e+03  -2.1 0.00e+00  -6.6 0.00e+00 2.13e-07R  2
 223r-6.0333968e+00 1.77e-02 1.30e+03  -2.1 2.21e+03    -  5.56e-04 1.67e-04f  1
 224 -6.0336051e+00 1.57e-02 5.80e+05  -6.0 6.12e-01    -  4.72e-01 1.13e-01h  1
 225 -6.0341585e+00 1.07e-02 1.79e+06  -6.0 5.56e-01    -  1.13e-01 3.20e-01h  1
 226 -6.0353946e+00 1.74e-05 4.66e+01  -6.0 3.76e-01    -  8.07e-01 1.00e+00h  1
 227 -6.0365768e+00 4.35e-04 1.27e+01  -6.0 1.47e+00    -  8.47e-01 1.00e+00h  1
 228 -6.0402718e+00 4.21e-03 3.70e+00  -6.0 9.14e+00    -  8.06e-01 8.79e-01h  1
 229 -6.0409739e+00 1.74e-02 6.46e+01  -6.0 2.41e+01    -  7.11e-01 1.00e+00f  1
iter    objective    inf_pr   inf_du lg(mu)  ||d||  lg(rg) alpha_du alpha_pr  ls
 230 -6.0456274e+00 2.90e-02 8.13e+00  -6.0 4.92e+01    -  6.18e-01 4.77e-01h  1
 231 -6.0496023e+00 3.58e-02 8.06e+01  -6.0 1.20e+02    -  7.42e-01 3.55e-01h  1
 232 -6.0625882e+00 2.69e+00 1.30e+02  -6.0 4.10e+02    -  5.27e-01 1.00e+00h  1
 233 -6.0763209e+00 1.39e-01 4.84e+02  -6.0 3.67e+02  -7.1 8.42e-02 1.00e+00h  1
 234 -6.0756258e+00 2.78e-03 6.62e+00  -6.0 1.86e+00  -4.8 7.21e-01 1.00e+00h  1
 235 -6.0761170e+00 6.66e-03 1.26e+01  -6.0 5.48e+00  -5.3 3.41e-01 5.57e-01h  1
 236 -6.1063928e+00 2.05e+00 4.25e+04  -6.0 4.79e+03    -  1.95e-04 1.43e-01f  1
 237 -6.1407368e+00 3.54e+00 2.01e+04  -6.0 1.79e+03    -  3.94e-01 5.31e-01h  1
 238 -6.1431098e+00 2.96e+00 1.60e+04  -6.0 1.17e+03    -  3.80e-01 2.06e-01h  1
 239 -6.1489270e+00 2.32e+00 1.09e+06  -6.0 1.08e+03    -  2.80e-04 7.44e-01h  1
iter    objective    inf_pr   inf_du lg(mu)  ||d||  lg(rg) alpha_du alpha_pr  ls
 240 -6.1519678e+00 1.76e+00 7.73e+05  -6.0 7.46e+02    -  6.72e-02 2.95e-01f  1
 241 -6.1500544e+00 6.23e-01 1.38e+05  -6.0 3.95e+02    -  2.75e-01 8.28e-01h  1
 242 -6.1507362e+00 4.69e-02 2.55e+04  -6.0 1.44e+02    -  5.02e-02 1.00e+00f  1
 243 -6.1517987e+00 1.93e-01 1.52e+01  -6.0 1.06e+02    -  8.47e-01 1.00e+00h  1
 244 -6.1550234e+00 5.74e-02 1.48e+01  -6.0 2.76e+00  -4.0 2.26e-01 7.02e-01h  1
 245 -6.1553119e+00 5.72e-02 1.21e+03  -6.0 3.32e+01  -4.5 5.14e-02 4.04e-03h  1
 246 -6.1579856e+00 4.72e-02 2.32e+04  -6.0 3.56e+02    -  8.99e-01 4.01e-01h  1
 247 -6.1610804e+00 3.71e-02 1.44e+04  -6.0 3.12e+02    -  4.37e-01 4.21e-01h  1
 248 -6.1697220e+00 3.22e-02 1.62e+03  -6.0 2.93e+02    -  1.00e+00 1.00e+00h  1
 249 -6.1735303e+00 2.65e-02 2.19e+05  -6.0 3.33e+02    -  5.84e-01 2.59e-01h  1
iter    objective    inf_pr   inf_du lg(mu)  ||d||  lg(rg) alpha_du alpha_pr  ls
 250 -6.1824948e+00 2.94e-02 6.03e+05  -6.0 3.93e+02    -  1.00e+00 4.99e-01h  1
 251r-6.1824948e+00 2.94e-02 1.00e+03  -1.7 0.00e+00    -  0.00e+00 2.42e-07R  2
 252r-6.1811372e+00 2.75e-02 1.00e+03  -1.7 2.72e+03    -  1.70e-04 6.50e-05f  1
 253 -6.1813215e+00 2.40e-02 5.92e+05  -6.0 5.06e-01    -  4.94e-01 1.27e-01h  1
 254 -6.1819916e+00 1.67e-02 1.53e+06  -6.0 8.19e-01    -  1.27e-01 3.06e-01h  1
 255 -6.1841174e+00 1.39e-04 6.65e+01  -6.0 8.20e-01    -  7.65e-01 1.00e+00h  1
 256 -6.1893308e+00 1.76e-03 2.26e+01  -6.0 1.88e+00    -  7.39e-01 1.00e+00h  1
 257 -6.1952227e+00 4.52e-03 9.90e+00  -6.0 2.36e+00    -  7.22e-01 9.64e-01h  1
 258 -6.1920859e+00 7.85e-04 2.18e+02  -6.0 3.18e+00    -  6.69e-01 1.00e+00h  1
 259 -6.1961446e+00 4.04e-03 6.69e+01  -6.0 1.66e+01    -  5.58e-01 4.64e-01h  1
iter    objective    inf_pr   inf_du lg(mu)  ||d||  lg(rg) alpha_du alpha_pr  ls
 260 -6.1938362e+00 3.59e-03 9.52e+04  -6.0 1.66e+01    -  3.48e-01 1.00e+00H  1
 261 -6.1936928e+00 3.24e-03 8.33e+04  -6.0 2.20e+01    -  5.49e-01 1.25e-01h  4
 262 -6.1938849e+00 2.05e-03 4.49e+04  -6.0 1.01e+00  -4.0 6.69e-01 4.61e-01h  1
 263 -6.1943552e+00 3.15e-03 4.31e+04  -6.0 1.82e+02    -  4.41e-02 4.05e-02f  2
 264 -6.1949850e+00 1.34e-03 3.19e+04  -6.0 5.51e+01    -  9.58e-01 1.00e+00H  1
 265 -6.1955092e+00 1.81e-03 2.44e+03  -6.0 2.57e+02    -  9.41e-01 1.00e+00H  1
 266 -6.1956041e+00 1.85e-03 9.70e-02  -6.0 6.00e+01    -  9.89e-01 1.00e+00h  1
 267 -6.1955628e+00 5.63e-06 1.53e-04  -6.0 3.03e+00    -  1.00e+00 1.00e+00h  1
 268 -6.1955626e+00 9.39e-10 1.09e-07  -6.0 3.51e-02    -  1.00e+00 1.00e+00h  1
 269 -6.1956458e+00 1.21e-01 4.57e+01  -7.5 1.06e+02    -  9.55e-01 7.97e-01h  1
iter    objective    inf_pr   inf_du lg(mu)  ||d||  lg(rg) alpha_du alpha_pr  ls
 270 -6.1956434e+00 1.79e-02 6.13e+00  -7.5 2.25e+01    -  1.00e+00 9.12e-01h  1
 271 -6.1956421e+00 5.46e-05 4.55e-03  -7.5 1.77e+00    -  1.00e+00 1.00e+00h  1
 272 -6.1956421e+00 2.84e-10 2.04e-10  -7.5 1.74e-03    -  1.00e+00 1.00e+00h  1
 273 -6.1956435e+00 1.42e-04 6.83e-01  -9.0 3.42e+00    -  9.20e-01 8.45e-01h  1
 274 -6.1956437e+00 4.75e-06 3.19e-04  -9.0 5.29e-01    -  1.00e+00 1.00e+00f  1
 275 -6.1956437e+00 2.85e-10 4.61e-09  -9.0 1.13e-04    -  1.00e+00 1.00e+00h  1

Number of Iterations....: 275

                                   (scaled)                 (unscaled)
Objective...............:  -4.8403466764817678e+00   -6.1956437458966631e+00
Dual infeasibility......:   4.6094085735075421e-09    5.9000429740896538e-09
Constraint violation....:   2.8527325543047793e-10    2.8527325543047793e-10
Complementarity.........:   1.1347638693127107e-09    1.4524977527202697e-09
Overall NLP error.......:   4.6094085735075421e-09    5.9000429740896538e-09


Number of objective function evaluations             = 407
Number of objective gradient evaluations             = 276
Number of equality constraint evaluations            = 407
Number of inequality constraint evaluations          = 407
Number of equality constraint Jacobian evaluations   = 279
Number of inequality constraint Jacobian evaluations = 279
Number of Lagrangian Hessian evaluations             = 275
Total CPU secs in IPOPT (w/o function evaluations)   =    638.044
Total CPU secs in NLP function evaluations           =     11.049

EXIT: Optimal Solution Found.
